91
1000
695	1
688	1
677	1
671	1
665	1
662	1
660	1
659	1
656	1
649	1
648	1
646	1
610	1
603	1
598	1
596	1
595	1
594	1
588	2
587	1
583	1
576	1
575	1
571	1
570	1
568	2
567	1
556	1
555	1
548	1
541	2
538	1
537	2
520	1
519	1
516	1
509	1
503	1
494	1
491	1
484	1
480	1
473	1
463	1
459	2
453	1
432	1
431	1
428	1
422	1
420	1
405	1
404	1
401	1
391	1
386	1
380	1
376	1
371	1
368	1
364	1
360	1
357	2
356	1
352	1
346	1
344	1
340	1
338	1
331	2
329	2
319	1
315	1
314	1
312	1
294	1
293	1
290	1
283	2
276	1
264	1
251	1
250	1
248	1
239	1
235	1
233	1
225	1
219	1
218	1
207	1
